p tw 385 416
1 2
2 113
3 14
4 5
5 6
6 7
7 8
8 9
9 10
10 11
11 12
12 13
13 15
14 25
15 16
16 17
17 18
18 19
19 20
20 21
21 22
22 23
23 24
24 26
25 36
26 27
27 28
28 29
29 30
30 31
31 32
32 33
33 34
34 35
35 37
36 47
37 38
38 39
39 40
40 41
41 42
42 43
43 44
44 45
45 46
46 48
47 58
48 49
49 50
50 51
51 52
52 53
53 54
54 55
55 56
56 57
57 59
58 69
59 60
60 61
61 62
62 63
63 64
64 65
65 66
66 67
67 68
68 70
69 80
70 71
71 72
72 73
73 74
74 75
74 76
75 317
76 77
77 78
78 79
78 137
79 81
80 91
81 82
82 83
82 88
83 84
84 85
84 88
85 86
86 87
87 129
88 89
89 90
90 92
90 94
91 102
92 93
93 129
94 95
95 96
96 97
96 100
97 98
98 99
99 129
100 101
101 103
102 114
103 104
103 107
104 105
105 106
106 129
107 108
108 109
109 110
109 115
110 111
111 112
112 129
113 224
114 125
115 116
116 117
117 118
117 121
118 119
119 120
120 129
121 122
122 123
123 124
123 127
124 126
125 136
126 127
126 129
127 128
128 129
129 130
130 131
131 132
132 133
133 134
134 135
135 70
136 147
137 138
138 139
139 140
139 303
140 141
141 142
142 143
143 144
144 145
144 149
145 146
146 148
147 158
148 295
149 150
150 151
151 152
152 153
153 154
154 155
154 159
155 156
156 157
157 295
158 169
159 160
160 161
161 162
162 163
163 164
164 165
164 168
165 166
166 167
167 295
168 170
169 180
170 171
171 172
172 173
173 174
174 175
174 178
175 176
176 177
177 295
178 179
179 181
180 191
181 182
182 183
183 184
184 185
184 188
185 186
186 187
187 295
188 189
189 190
190 192
191 202
192 193
193 194
194 195
194 198
195 196
196 197
197 295
198 199
199 200
200 201
201 203
202 213
203 204
204 205
204 208
205 206
206 207
207 295
208 209
209 210
210 211
211 212
212 214
213 225
214 215
214 218
215 216
216 217
217 295
218 219
219 220
220 221
221 222
222 223
223 226
223 229
224 320
225 236
226 227
227 228
228 295
229 230
230 231
231 232
232 233
233 234
234 235
234 239
235 237
236 247
237 238
238 295
239 240
240 241
241 242
242 243
243 244
244 245
244 248
245 246
246 295
247 258
248 249
249 250
250 251
251 252
252 253
253 254
253 256
254 255
255 295
256 257
257 259
258 269
259 260
260 261
261 262
262 263
262 266
263 264
264 265
265 295
266 267
267 268
268 270
269 280
270 271
271 272
272 273
272 276
273 274
274 275
275 295
276 277
277 278
278 279
279 281
280 291
281 282
282 283
282 286
283 284
284 285
285 295
286 287
287 288
288 289
289 290
290 292
291 302
292 293
292 295
293 294
294 295
295 296
296 297
297 298
298 299
299 300
300 301
301 70
302 313
303 304
304 305
305 306
305 70
306 307
307 308
308 309
309 310
310 311
310 70
311 312
312 70
313 319
314 315
315 316
316 317
317 318
319 321
320 331
321 322
322 323
323 324
324 325
325 326
326 327
327 328
328 329
329 330
330 332
331 342
332 333
333 334
334 335
335 336
336 337
337 338
338 339
339 340
340 341
341 343
342 353
342 3
343 344
344 345
345 346
346 347
347 348
348 349
349 350
350 351
351 352
352 354
353 364
354 355
355 356
356 357
357 358
358 359
359 360
360 361
361 362
362 363
363 365
364 375
364 73
365 366
366 367
367 368
368 369
369 370
370 371
371 372
372 373
373 374
374 376
375 314
376 377
377 378
378 379
379 380
380 381
381 382
382 383
383 384
384 385
385 4
